language ESSENCE' 1.0

letting bibd_RelationAsMatrix be
        [[true, true, true, true, true, true, true, true, true, true, true, true, true, true, true, true, true, true,
          true, true, true, true, true, true, true, true, true, true, true, true, true, true, true, true, true, true;
              int(1..36)],
         [true, true, true, true, true, true, true, true, true, true, true, true, true, true, true, true, true, true,
          true, true, true, true, true, true, true, true, true, true, true, true, true, true, true, true, true, true;
              int(1..36)],
         [true, true, true, true, true, true, true, true, true, true, true, true, true, true, true, true, true, true,
          true, true, true, true, true, true, true, true, true, true, true, true, true, true, true, true, true, true;
              int(1..36)],
         [true, true, true, true, true, true, true, true, true, true, true, true, true, true, true, true, true, true,
          true, true, true, true, true, true, true, true, true, true, true, true, true, true, true, true, true, true;
              int(1..36)],
         [true, true, true, true, true, true, true, true, true, true, true, true, true, true, true, true, true, true,
          true, true, true, true, true, true, true, true, true, true, true, true, true, true, true, true, true, true;
              int(1..36)],
         [true, true, true, true, true, true, true, true, true, true, true, true, true, true, true, true, true, true,
          true, true, true, true, true, true, true, true, true, true, true, true, true, true, true, true, true, true;
              int(1..36)],
         [true, true, true, true, true, true, true, true, true, true, true, true, true, true, true, true, true, true,
          true, true, true, true, true, true, true, true, true, true, true, true, true, true, true, true, true, true;
              int(1..36)],
         [true, true, true, true, true, true, true, true, true, true, true, true, true, true, true, true, true, true,
          true, true, true, true, true, true, true, true, true, true, true, true, true, true, true, true, true, true;
              int(1..36)],
         [true, true, true, true, true, true, true, true, true, true, true, true, true, true, true, true, true, true,
          true, true, true, true, true, true, true, true, true, true, true, true, true, true, true, true, true, true;
              int(1..36)],
         [true, true, true, true, true, true, true, true, true, true, true, true, true, true, true, true, true, true,
          true, true, true, true, true, true, true, true, true, true, true, true, true, true, true, true, true, true;
              int(1..36)],
         [true, true, true, true, true, true, true, true, true, true, true, true, true, true, true, true, true, true,
          true, true, true, true, true, true, true, true, true, true, true, true, true, true, true, true, true, true;
              int(1..36)],
         [true, true, true, true, true, true, true, true, true, true, true, true, true, true, true, true, true, true,
          true, true, true, true, true, true, true, true, true, true, true, true, true, true, true, true, true, true;
              int(1..36)],
         [true, true, true, true, true, true, true, true, true, true, true, true, true, true, true, true, true, true,
          true, true, true, true, true, true, true, true, true, true, true, true, true, true, true, true, true, true;
              int(1..36)],
         [true, true, true, true, true, true, true, true, true, true, true, true, true, true, true, true, true, true,
          true, true, true, true, true, true, true, true, true, true, true, true, true, true, true, true, true, true;
              int(1..36)],
         [true, true, true, true, true, true, true, true, true, true, true, true, true, true, true, true, true, true,
          true, true, true, true, true, true, true, true, true, true, true, true, true, true, true, true, true, true;
              int(1..36)],
         [true, true, true, true, true, true, true, true, true, true, true, true, true, true, true, true, true, true,
          true, true, true, true, true, true, true, true, true, true, true, true, true, true, true, true, true, true;
              int(1..36)],
         [true, true, true, true, true, true, true, true, true, true, true, true, true, true, true, true, true, true,
          true, true, true, true, true, true, true, true, true, true, true, true, true, true, true, true, true, true;
              int(1..36)],
         [true, true, true, true, true, true, true, true, true, true, true, true, true, true, true, true, true, true,
          true, true, true, true, true, true, true, true, true, true, true, true, true, true, true, true, true, true;
              int(1..36)],
         [true, true, true, true, true, true, true, true, true, true, true, true, true, true, true, true, true, true,
          true, true, true, true, true, true, true, true, true, true, true, true, true, true, true, true, true, true;
              int(1..36)],
         [true, true, true, true, true, true, true, true, true, true, true, true, true, true, true, true, true, true,
          true, true, true, true, true, true, true, true, true, true, true, true, true, true, true, true, true, true;
              int(1..36)],
         [true, true, true, true, true, true, true, true, true, true, true, true, true, true, true, true, true, true,
          true, true, true, true, true, true, true, true, true, true, true, true, true, true, true, true, true, true;
              int(1..36)],
         [true, true, true, true, true, true, true, true, true, true, true, true, true, true, true, true, true, true,
          true, true, true, true, true, true, true, true, true, true, true, true, true, true, true, true, true, true;
              int(1..36)],
         [true, true, true, true, true, true, true, true, true, true, true, true, true, true, true, true, true, true,
          true, true, true, true, true, true, true, true, true, true, true, true, true, true, true, true, true, true;
              int(1..36)],
         [true, true, true, true, true, true, true, true, true, true, true, true, true, true, true, true, true, true,
          true, true, true, true, true, true, true, true, true, true, true, true, true, true, true, true, true, true;
              int(1..36)],
         [true, true, true, true, true, true, true, true, true, true, true, true, true, true, true, true, true, true,
          true, true, true, true, true, true, true, true, true, true, true, true, true, true, true, true, true, true;
              int(1..36)],
         [true, true, true, true, true, true, true, true, true, true, true, true, true, true, true, true, true, true,
          true, true, true, true, true, true, true, true, true, true, true, true, true, true, true, true, true, true;
              int(1..36)],
         [true, true, true, true, true, true, true, true, true, true, true, true, true, true, true, true, true, true,
          true, true, true, true, true, true, true, true, true, true, true, true, true, true, true, true, true, true;
              int(1..36)],
         [true, true, true, true, true, true, true, true, true, true, true, true, true, true, true, true, true, true,
          true, true, true, true, true, true, true, true, true, true, true, true, true, true, true, true, true, true;
              int(1..36)],
         [true, true, true, true, true, true, true, true, true, true, true, true, true, true, true, true, true, true,
          true, true, true, true, true, true, true, true, true, true, true, true, true, true, true, true, true, true;
              int(1..36)],
         [true, true, true, true, true, true, true, true, true, true, true, true, true, true, true, true, true, true,
          true, true, true, true, true, true, true, true, true, true, true, true, true, true, true, true, true, true;
              int(1..36)],
         [true, true, true, true, true, true, true, true, true, true, true, true, true, true, true, true, true, true,
          true, true, true, true, true, true, true, true, true, true, true, true, true, true, true, true, true, true;
              int(1..36)],
         [true, true, true, true, true, true, true, true, true, true, true, true, true, true, true, true, true, true,
          true, true, true, true, true, true, true, true, true, true, true, true, true, true, true, true, true, true;
              int(1..36)],
         [true, true, true, true, true, true, true, true, true, true, true, true, true, true, true, true, true, true,
          true, true, true, true, true, true, true, true, true, true, true, true, true, true, true, true, true, true;
              int(1..36)],
         [true, true, true, true, true, true, true, true, true, true, true, true, true, true, true, true, true, true,
          true, true, true, true, true, true, true, true, true, true, true, true, true, true, true, true, true, true;
              int(1..36)],
         [true, true, true, true, true, true, true, true, true, true, true, true, true, true, true, true, true, true,
          true, true, true, true, true, true, true, true, true, true, true, true, true, true, true, true, true, true;
              int(1..36)],
         [true, true, true, true, true, true, true, true, true, true, true, true, true, true, true, true, true, true,
          true, true, true, true, true, true, true, true, true, true, true, true, true, true, true, true, true, true;
              int(1..36)];
             int(1..36)]
$ Visualisation for bibd_RelationAsMatrix
$ T T T T T T T T T T T T T T T T T T T T T T T T T T T T T T T T T T T T
$ T T T T T T T T T T T T T T T T T T T T T T T T T T T T T T T T T T T T
$ T T T T T T T T T T T T T T T T T T T T T T T T T T T T T T T T T T T T
$ T T T T T T T T T T T T T T T T T T T T T T T T T T T T T T T T T T T T
$ T T T T T T T T T T T T T T T T T T T T T T T T T T T T T T T T T T T T
$ T T T T T T T T T T T T T T T T T T T T T T T T T T T T T T T T T T T T
$ T T T T T T T T T T T T T T T T T T T T T T T T T T T T T T T T T T T T
$ T T T T T T T T T T T T T T T T T T T T T T T T T T T T T T T T T T T T
$ T T T T T T T T T T T T T T T T T T T T T T T T T T T T T T T T T T T T
$ T T T T T T T T T T T T T T T T T T T T T T T T T T T T T T T T T T T T
$ T T T T T T T T T T T T T T T T T T T T T T T T T T T T T T T T T T T T
$ T T T T T T T T T T T T T T T T T T T T T T T T T T T T T T T T T T T T
$ T T T T T T T T T T T T T T T T T T T T T T T T T T T T T T T T T T T T
$ T T T T T T T T T T T T T T T T T T T T T T T T T T T T T T T T T T T T
$ T T T T T T T T T T T T T T T T T T T T T T T T T T T T T T T T T T T T
$ T T T T T T T T T T T T T T T T T T T T T T T T T T T T T T T T T T T T
$ T T T T T T T T T T T T T T T T T T T T T T T T T T T T T T T T T T T T
$ T T T T T T T T T T T T T T T T T T T T T T T T T T T T T T T T T T T T
$ T T T T T T T T T T T T T T T T T T T T T T T T T T T T T T T T T T T T
$ T T T T T T T T T T T T T T T T T T T T T T T T T T T T T T T T T T T T
$ T T T T T T T T T T T T T T T T T T T T T T T T T T T T T T T T T T T T
$ T T T T T T T T T T T T T T T T T T T T T T T T T T T T T T T T T T T T
$ T T T T T T T T T T T T T T T T T T T T T T T T T T T T T T T T T T T T
$ T T T T T T T T T T T T T T T T T T T T T T T T T T T T T T T T T T T T
$ T T T T T T T T T T T T T T T T T T T T T T T T T T T T T T T T T T T T
$ T T T T T T T T T T T T T T T T T T T T T T T T T T T T T T T T T T T T
$ T T T T T T T T T T T T T T T T T T T T T T T T T T T T T T T T T T T T
$ T T T T T T T T T T T T T T T T T T T T T T T T T T T T T T T T T T T T
$ T T T T T T T T T T T T T T T T T T T T T T T T T T T T T T T T T T T T
$ T T T T T T T T T T T T T T T T T T T T T T T T T T T T T T T T T T T T
$ T T T T T T T T T T T T T T T T T T T T T T T T T T T T T T T T T T T T
$ T T T T T T T T T T T T T T T T T T T T T T T T T T T T T T T T T T T T
$ T T T T T T T T T T T T T T T T T T T T T T T T T T T T T T T T T T T T
$ T T T T T T T T T T T T T T T T T T T T T T T T T T T T T T T T T T T T
$ T T T T T T T T T T T T T T T T T T T T T T T T T T T T T T T T T T T T
$ T T T T T T T T T T T T T T T T T T T T T T T T T T T T T T T T T T T T

